NAME PortOpt_n20_m8_inst_4
ROWS
 N  OBJ
 E  budget  
 L  return  
 L  uncertain_risk
 L  fixed_risk
COLUMNS
    asset[0]  budget    1
    asset[0]  return    -1.8410132630428826e+00
    asset[1]  budget    1
    asset[1]  return    -1.9378228451647719e+00
    asset[2]  budget    1
    asset[2]  return    -4.4405468949660634e+00
    asset[3]  budget    1
    asset[3]  return    -2.7901727487222709e+00
    asset[4]  budget    1
    asset[4]  return    -2.8265748018407435e+00
    asset[5]  budget    1
    asset[5]  return    -3.2316849776695440e+00
    asset[6]  budget    1
    asset[6]  return    -2.4246270724259094e+00
    asset[7]  budget    1
    asset[7]  return    -3.9449100119357103e+00
    asset[8]  budget    1
    asset[8]  return    -3.8252949238874323e+00
    asset[9]  budget    1
    asset[9]  return    -3.3990891818357580e+00
    asset[10]  budget    1
    asset[10]  return    -3.6733861212655299e+00
    asset[11]  budget    1
    asset[11]  return    -3.2726619474683996e+00
    asset[12]  budget    1
    asset[12]  return    -1.3263612477864573e+00
    asset[13]  budget    1
    asset[13]  return    -3.2360333134915171e+00
    asset[14]  budget    1
    asset[14]  return    -2.6015104726957334e+00
    asset[15]  budget    1
    asset[15]  return    -1.2066526602140069e+00
    asset[16]  budget    1
    asset[16]  return    -2.2254130572482924e+00
    asset[17]  budget    1
    asset[17]  return    -2.8531198559584325e+00
    asset[18]  budget    1
    asset[18]  return    -2.0123250353344995e+00
    asset[19]  budget    1
    asset[19]  return    -1.1308304615896581e+00
    return_var  OBJ       -1
    return_var  return    1
    uncertain_risk_var  OBJ       1
    uncertain_risk_var  uncertain_risk  -1
    fixed_risk_var  OBJ       1
    fixed_risk_var  fixed_risk  -1
RHS
    RHS1      budget    1
BOUNDS
 FR BND1      asset[0]
 FR BND1      asset[1]
 FR BND1      asset[2]
 FR BND1      asset[3]
 FR BND1      asset[4]
 FR BND1      asset[5]
 FR BND1      asset[6]
 FR BND1      asset[7]
 FR BND1      asset[8]
 FR BND1      asset[9]
 FR BND1      asset[10]
 FR BND1      asset[11]
 FR BND1      asset[12]
 FR BND1      asset[13]
 FR BND1      asset[14]
 FR BND1      asset[15]
 FR BND1      asset[16]
 FR BND1      asset[17]
 FR BND1      asset[18]
 FR BND1      asset[19]
 FR BND1      return_var
 FR BND1      uncertain_risk_var
 FR BND1      fixed_risk_var
QCMATRIX   uncertain_risk
    asset[0]  asset[0]  1.3105173395739566e-02
    asset[0]  asset[1]  -8.3617350757185273e-03
    asset[1]  asset[0]  -8.3617350757185273e-03
    asset[0]  asset[2]  -5.1935669771327551e-03
    asset[2]  asset[0]  -5.1935669771327551e-03
    asset[0]  asset[3]  3.2079094111163303e-03
    asset[3]  asset[0]  3.2079094111163303e-03
    asset[0]  asset[4]  6.8068241464045703e-03
    asset[4]  asset[0]  6.8068241464045703e-03
    asset[0]  asset[5]  1.8016885734049902e-03
    asset[5]  asset[0]  1.8016885734049902e-03
    asset[0]  asset[6]  7.7853385428277491e-03
    asset[6]  asset[0]  7.7853385428277491e-03
    asset[0]  asset[7]  -1.5358339593492053e-02
    asset[7]  asset[0]  -1.5358339593492053e-02
    asset[0]  asset[8]  -8.2899565715524419e-03
    asset[8]  asset[0]  -8.2899565715524419e-03
    asset[0]  asset[9]  4.3867967781986063e-03
    asset[9]  asset[0]  4.3867967781986063e-03
    asset[0]  asset[10]  -7.1274740804817844e-03
    asset[10]  asset[0]  -7.1274740804817844e-03
    asset[0]  asset[11]  -1.4096438492982928e-02
    asset[11]  asset[0]  -1.4096438492982928e-02
    asset[0]  asset[12]  2.4772616221220879e-03
    asset[12]  asset[0]  2.4772616221220879e-03
    asset[0]  asset[13]  -6.6231949568150003e-03
    asset[13]  asset[0]  -6.6231949568150003e-03
    asset[0]  asset[14]  2.4730726428040398e-03
    asset[14]  asset[0]  2.4730726428040398e-03
    asset[0]  asset[15]  2.0735640104911773e-02
    asset[15]  asset[0]  2.0735640104911773e-02
    asset[0]  asset[16]  7.2420708043067416e-03
    asset[16]  asset[0]  7.2420708043067416e-03
    asset[0]  asset[17]  -9.5511695110110425e-03
    asset[17]  asset[0]  -9.5511695110110425e-03
    asset[0]  asset[18]  -8.0816087807721350e-03
    asset[18]  asset[0]  -8.0816087807721350e-03
    asset[0]  asset[19]  -9.1226922079086607e-03
    asset[19]  asset[0]  -9.1226922079086607e-03
    asset[1]  asset[1]  2.6923412896805478e-02
    asset[1]  asset[2]  2.7282131960529722e-03
    asset[2]  asset[1]  2.7282131960529722e-03
    asset[1]  asset[3]  1.1074188562397357e-02
    asset[3]  asset[1]  1.1074188562397357e-02
    asset[1]  asset[4]  1.1801425932912795e-03
    asset[4]  asset[1]  1.1801425932912795e-03
    asset[1]  asset[5]  2.7132509289943215e-03
    asset[5]  asset[1]  2.7132509289943215e-03
    asset[1]  asset[6]  1.7590242928387039e-03
    asset[6]  asset[1]  1.7590242928387039e-03
    asset[1]  asset[7]  2.6142343765541427e-02
    asset[7]  asset[1]  2.6142343765541427e-02
    asset[1]  asset[8]  1.7786225717260004e-02
    asset[8]  asset[1]  1.7786225717260004e-02
    asset[1]  asset[9]  -2.1529278011013613e-02
    asset[9]  asset[1]  -2.1529278011013613e-02
    asset[1]  asset[10]  3.2658223065905725e-02
    asset[10]  asset[1]  3.2658223065905725e-02
    asset[1]  asset[11]  2.2402025917895287e-02
    asset[11]  asset[1]  2.2402025917895287e-02
    asset[1]  asset[12]  -7.0811416383503752e-03
    asset[12]  asset[1]  -7.0811416383503752e-03
    asset[1]  asset[13]  -5.6058694774057116e-03
    asset[13]  asset[1]  -5.6058694774057116e-03
    asset[1]  asset[14]  1.5529195364070138e-02
    asset[14]  asset[1]  1.5529195364070138e-02
    asset[1]  asset[15]  -3.4445176425343990e-02
    asset[15]  asset[1]  -3.4445176425343990e-02
    asset[1]  asset[16]  -7.6193367897866753e-03
    asset[16]  asset[1]  -7.6193367897866753e-03
    asset[1]  asset[17]  1.9402699751348625e-03
    asset[17]  asset[1]  1.9402699751348625e-03
    asset[1]  asset[18]  9.0159035197503214e-03
    asset[18]  asset[1]  9.0159035197503214e-03
    asset[1]  asset[19]  -9.7130907889039983e-03
    asset[19]  asset[1]  -9.7130907889039983e-03
    asset[2]  asset[2]  2.0201280629197592e-02
    asset[2]  asset[3]  -5.5909796412883274e-03
    asset[3]  asset[2]  -5.5909796412883274e-03
    asset[2]  asset[4]  -3.6590741418810776e-03
    asset[4]  asset[2]  -3.6590741418810776e-03
    asset[2]  asset[5]  1.4014852596911241e-03
    asset[5]  asset[2]  1.4014852596911241e-03
    asset[2]  asset[6]  4.5235509983727282e-04
    asset[6]  asset[2]  4.5235509983727282e-04
    asset[2]  asset[7]  1.2638644716091829e-03
    asset[7]  asset[2]  1.2638644716091829e-03
    asset[2]  asset[8]  -7.4397092708550746e-03
    asset[8]  asset[2]  -7.4397092708550746e-03
    asset[2]  asset[9]  -2.4698904127382626e-02
    asset[9]  asset[2]  -2.4698904127382626e-02
    asset[2]  asset[10]  2.0048743152128120e-02
    asset[10]  asset[2]  2.0048743152128120e-02
    asset[2]  asset[11]  4.2529743052978405e-03
    asset[11]  asset[2]  4.2529743052978405e-03
    asset[2]  asset[12]  3.7383596878451742e-03
    asset[12]  asset[2]  3.7383596878451742e-03
    asset[2]  asset[13]  3.3299822666482889e-03
    asset[13]  asset[2]  3.3299822666482889e-03
    asset[2]  asset[14]  3.8965368538960710e-03
    asset[14]  asset[2]  3.8965368538960710e-03
    asset[2]  asset[15]  -2.3824194683754109e-02
    asset[15]  asset[2]  -2.3824194683754109e-02
    asset[2]  asset[16]  -8.5148399092065431e-03
    asset[16]  asset[2]  -8.5148399092065431e-03
    asset[2]  asset[17]  -1.1607547495485666e-02
    asset[17]  asset[2]  -1.1607547495485666e-02
    asset[2]  asset[18]  1.0440755419348136e-02
    asset[18]  asset[2]  1.0440755419348136e-02
    asset[2]  asset[19]  -1.0923884121016872e-02
    asset[19]  asset[2]  -1.0923884121016872e-02
    asset[3]  asset[3]  1.9631121216697720e-02
    asset[3]  asset[4]  1.1219248168248296e-03
    asset[4]  asset[3]  1.1219248168248296e-03
    asset[3]  asset[5]  -2.5319788316758582e-03
    asset[5]  asset[3]  -2.5319788316758582e-03
    asset[3]  asset[6]  6.4807448196906904e-03
    asset[6]  asset[3]  6.4807448196906904e-03
    asset[3]  asset[7]  1.2572216873245945e-02
    asset[7]  asset[3]  1.2572216873245945e-02
    asset[3]  asset[8]  1.0538968309674013e-02
    asset[8]  asset[3]  1.0538968309674013e-02
    asset[3]  asset[9]  1.0917996207278307e-02
    asset[9]  asset[3]  1.0917996207278307e-02
    asset[3]  asset[10]  1.3489759755622088e-02
    asset[10]  asset[3]  1.3489759755622088e-02
    asset[3]  asset[11]  7.6528716510924459e-03
    asset[11]  asset[3]  7.6528716510924459e-03
    asset[3]  asset[12]  -9.6202513903891999e-03
    asset[12]  asset[3]  -9.6202513903891999e-03
    asset[3]  asset[13]  -9.9088920924099780e-03
    asset[13]  asset[3]  -9.9088920924099780e-03
    asset[3]  asset[14]  1.1036565207289791e-02
    asset[14]  asset[3]  1.1036565207289791e-02
    asset[3]  asset[15]  5.3176408004574271e-03
    asset[15]  asset[3]  5.3176408004574271e-03
    asset[3]  asset[16]  2.7679163968245932e-03
    asset[16]  asset[3]  2.7679163968245932e-03
    asset[3]  asset[17]  3.5761097147262366e-03
    asset[17]  asset[3]  3.5761097147262366e-03
    asset[3]  asset[18]  -7.5626855896383585e-03
    asset[18]  asset[3]  -7.5626855896383585e-03
    asset[3]  asset[19]  -9.2883617095119682e-04
    asset[19]  asset[3]  -9.2883617095119682e-04
    asset[4]  asset[4]  2.6352861023390562e-02
    asset[4]  asset[5]  5.4367976319347148e-03
    asset[5]  asset[4]  5.4367976319347148e-03
    asset[4]  asset[6]  -4.0181383093443242e-04
    asset[6]  asset[4]  -4.0181383093443242e-04
    asset[4]  asset[7]  1.1206423591808042e-04
    asset[7]  asset[4]  1.1206423591808042e-04
    asset[4]  asset[8]  2.5212129679367786e-03
    asset[8]  asset[4]  2.5212129679367786e-03
    asset[4]  asset[9]  -1.5162761515184791e-02
    asset[9]  asset[4]  -1.5162761515184791e-02
    asset[4]  asset[10]  1.0117414859488064e-02
    asset[10]  asset[4]  1.0117414859488064e-02
    asset[4]  asset[11]  -1.0660973322756446e-02
    asset[11]  asset[4]  -1.0660973322756446e-02
    asset[4]  asset[12]  9.5687891077053337e-03
    asset[12]  asset[4]  9.5687891077053337e-03
    asset[4]  asset[13]  -1.6287328281420932e-02
    asset[13]  asset[4]  -1.6287328281420932e-02
    asset[4]  asset[14]  1.4998500976054964e-02
    asset[14]  asset[4]  1.4998500976054964e-02
    asset[4]  asset[15]  8.5174825610149739e-03
    asset[15]  asset[4]  8.5174825610149739e-03
    asset[4]  asset[16]  -1.6590318091985628e-03
    asset[16]  asset[4]  -1.6590318091985628e-03
    asset[4]  asset[17]  -1.3129326992224442e-02
    asset[17]  asset[4]  -1.3129326992224442e-02
    asset[4]  asset[18]  -2.4097036700925498e-04
    asset[18]  asset[4]  -2.4097036700925498e-04
    asset[4]  asset[19]  -2.3726922881574311e-02
    asset[19]  asset[4]  -2.3726922881574311e-02
    asset[5]  asset[5]  1.2418862189299546e-02
    asset[5]  asset[6]  5.4805569747071858e-03
    asset[6]  asset[5]  5.4805569747071858e-03
    asset[5]  asset[7]  -1.6728304599072603e-02
    asset[7]  asset[5]  -1.6728304599072603e-02
    asset[5]  asset[8]  -1.0431941396771414e-02
    asset[8]  asset[5]  -1.0431941396771414e-02
    asset[5]  asset[9]  -1.9580562554498374e-02
    asset[9]  asset[5]  -1.9580562554498374e-02
    asset[5]  asset[10]  1.1835946304776097e-02
    asset[10]  asset[5]  1.1835946304776097e-02
    asset[5]  asset[11]  -7.8186160395750798e-03
    asset[11]  asset[5]  -7.8186160395750798e-03
    asset[5]  asset[12]  7.8612549049196789e-03
    asset[12]  asset[5]  7.8612549049196789e-03
    asset[5]  asset[13]  8.5179938706997924e-04
    asset[13]  asset[5]  8.5179938706997924e-04
    asset[5]  asset[14]  4.9469592675711188e-03
    asset[14]  asset[5]  4.9469592675711188e-03
    asset[5]  asset[15]  -1.5006589075468087e-03
    asset[15]  asset[5]  -1.5006589075468087e-03
    asset[5]  asset[16]  -5.6675602070187271e-03
    asset[16]  asset[5]  -5.6675602070187271e-03
    asset[5]  asset[17]  -1.0778472185708201e-02
    asset[17]  asset[5]  -1.0778472185708201e-02
    asset[5]  asset[18]  5.7598264464717927e-03
    asset[18]  asset[5]  5.7598264464717927e-03
    asset[5]  asset[19]  -1.6882384153602444e-02
    asset[19]  asset[5]  -1.6882384153602444e-02
    asset[6]  asset[6]  1.3713815815857299e-02
    asset[6]  asset[7]  -1.6314397269885286e-02
    asset[7]  asset[6]  -1.6314397269885286e-02
    asset[6]  asset[8]  -1.0724331261073750e-02
    asset[8]  asset[6]  -1.0724331261073750e-02
    asset[6]  asset[9]  -9.8211551267389924e-03
    asset[9]  asset[6]  -9.8211551267389924e-03
    asset[6]  asset[10]  9.3005183088437447e-03
    asset[10]  asset[6]  9.3005183088437447e-03
    asset[6]  asset[11]  -7.7860630525969678e-03
    asset[11]  asset[6]  -7.7860630525969678e-03
    asset[6]  asset[12]  -6.0798036060806353e-04
    asset[12]  asset[6]  -6.0798036060806353e-04
    asset[6]  asset[13]  -4.7032199859023092e-03
    asset[13]  asset[6]  -4.7032199859023092e-03
    asset[6]  asset[14]  3.8141004985804455e-03
    asset[14]  asset[6]  3.8141004985804455e-03
    asset[6]  asset[15]  6.3764334210785582e-03
    asset[15]  asset[6]  6.3764334210785582e-03
    asset[6]  asset[16]  2.6698892737558192e-03
    asset[16]  asset[6]  2.6698892737558192e-03
    asset[6]  asset[17]  -1.6738626136211174e-02
    asset[17]  asset[6]  -1.6738626136211174e-02
    asset[6]  asset[18]  -2.7154508154246656e-03
    asset[18]  asset[6]  -2.7154508154246656e-03
    asset[6]  asset[19]  -1.4291404439852325e-02
    asset[19]  asset[6]  -1.4291404439852325e-02
    asset[7]  asset[7]  7.6213794815616118e-02
    asset[7]  asset[8]  5.6516570905761995e-02
    asset[8]  asset[7]  5.6516570905761995e-02
    asset[7]  asset[9]  1.0298124787465479e-02
    asset[9]  asset[7]  1.0298124787465479e-02
    asset[7]  asset[10]  2.5458467860719571e-02
    asset[10]  asset[7]  2.5458467860719571e-02
    asset[7]  asset[11]  5.3635042092819760e-02
    asset[11]  asset[7]  5.3635042092819760e-02
    asset[7]  asset[12]  -1.5948223848217452e-02
    asset[12]  asset[7]  -1.5948223848217452e-02
    asset[7]  asset[13]  -7.0921328351844348e-03
    asset[13]  asset[7]  -7.0921328351844348e-03
    asset[7]  asset[14]  1.4060393077333571e-02
    asset[14]  asset[7]  1.4060393077333571e-02
    asset[7]  asset[15]  -4.6482736998157713e-02
    asset[15]  asset[7]  -4.6482736998157713e-02
    asset[7]  asset[16]  -2.2806840856814197e-03
    asset[16]  asset[7]  -2.2806840856814197e-03
    asset[7]  asset[17]  4.2032279737058212e-02
    asset[17]  asset[7]  4.2032279737058212e-02
    asset[7]  asset[18]  5.6146483848106693e-03
    asset[18]  asset[7]  5.6146483848106693e-03
    asset[7]  asset[19]  2.1101528053045368e-02
    asset[19]  asset[7]  2.1101528053045368e-02
    asset[8]  asset[8]  4.9438897515066464e-02
    asset[8]  asset[9]  1.6009096221250942e-02
    asset[9]  asset[8]  1.6009096221250942e-02
    asset[8]  asset[10]  1.5904979489456739e-02
    asset[10]  asset[8]  1.5904979489456739e-02
    asset[8]  asset[11]  4.2908963557923799e-02
    asset[11]  asset[8]  4.2908963557923799e-02
    asset[8]  asset[12]  -1.1433841594272839e-02
    asset[12]  asset[8]  -1.1433841594272839e-02
    asset[8]  asset[13]  -6.2791611189659882e-03
    asset[13]  asset[8]  -6.2791611189659882e-03
    asset[8]  asset[14]  9.1513361851017321e-03
    asset[14]  asset[8]  9.1513361851017321e-03
    asset[8]  asset[15]  -2.6571852856315269e-02
    asset[15]  asset[8]  -2.6571852856315269e-02
    asset[8]  asset[16]  2.2109949886610280e-03
    asset[16]  asset[8]  2.2109949886610280e-03
    asset[8]  asset[17]  4.0651088743891090e-02
    asset[17]  asset[8]  4.0651088743891090e-02
    asset[8]  asset[18]  1.3366625594761420e-03
    asset[18]  asset[8]  1.3366625594761420e-03
    asset[8]  asset[19]  1.9036019933716640e-02
    asset[19]  asset[8]  1.9036019933716640e-02
    asset[9]  asset[9]  8.5274226415800042e-02
    asset[9]  asset[10]  -5.1620254482913130e-02
    asset[10]  asset[9]  -5.1620254482913130e-02
    asset[9]  asset[11]  2.7586837506011304e-03
    asset[11]  asset[9]  2.7586837506011304e-03
    asset[9]  asset[12]  -1.4785398095396692e-02
    asset[12]  asset[9]  -1.4785398095396692e-02
    asset[9]  asset[13]  6.6192559206487613e-03
    asset[13]  asset[9]  6.6192559206487613e-03
    asset[9]  asset[14]  -2.0887176004973737e-02
    asset[14]  asset[9]  -2.0887176004973737e-02
    asset[9]  asset[15]  5.1762251260410147e-02
    asset[15]  asset[9]  5.1762251260410147e-02
    asset[9]  asset[16]  1.8616328594135950e-02
    asset[16]  asset[9]  1.8616328594135950e-02
    asset[9]  asset[17]  4.5999915493873750e-02
    asset[17]  asset[9]  4.5999915493873750e-02
    asset[9]  asset[18]  -2.6333915873898186e-02
    asset[18]  asset[9]  -2.6333915873898186e-02
    asset[9]  asset[19]  5.4915189484693559e-02
    asset[19]  asset[9]  5.4915189484693559e-02
    asset[10]  asset[10]  7.2021045377048537e-02
    asset[10]  asset[11]  2.7450372874266889e-02
    asset[11]  asset[10]  2.7450372874266889e-02
    asset[10]  asset[12]  1.0599049107995881e-03
    asset[12]  asset[10]  1.0599049107995881e-03
    asset[10]  asset[13]  -1.1999879925252466e-02
    asset[13]  asset[10]  -1.1999879925252466e-02
    asset[10]  asset[14]  3.1086376080268437e-02
    asset[14]  asset[10]  3.1086376080268437e-02
    asset[10]  asset[15]  -4.9987336824402658e-02
    asset[15]  asset[10]  -4.9987336824402658e-02
    asset[10]  asset[16]  -1.6534340232607060e-02
    asset[16]  asset[10]  -1.6534340232607060e-02
    asset[10]  asset[17]  -1.0906490369078370e-02
    asset[17]  asset[10]  -1.0906490369078370e-02
    asset[10]  asset[18]  1.7947823119199909e-02
    asset[18]  asset[10]  1.7947823119199909e-02
    asset[10]  asset[19]  -3.5639093609073073e-02
    asset[19]  asset[10]  -3.5639093609073073e-02
    asset[11]  asset[11]  4.9913911100415057e-02
    asset[11]  asset[12]  -1.2708041118593458e-02
    asset[12]  asset[11]  -1.2708041118593458e-02
    asset[11]  asset[13]  3.1730966251046636e-03
    asset[13]  asset[11]  3.1730966251046636e-03
    asset[11]  asset[14]  6.6177788503587534e-03
    asset[14]  asset[11]  6.6177788503587534e-03
    asset[11]  asset[15]  -4.6311783567062337e-02
    asset[15]  asset[11]  -4.6311783567062337e-02
    asset[11]  asset[16]  -3.3439683188739326e-03
    asset[16]  asset[11]  -3.3439683188739326e-03
    asset[11]  asset[17]  3.8038190484731588e-02
    asset[17]  asset[11]  3.8038190484731588e-02
    asset[11]  asset[18]  9.2180029092977494e-03
    asset[18]  asset[11]  9.2180029092977494e-03
    asset[11]  asset[19]  1.8842527450681844e-02
    asset[19]  asset[11]  1.8842527450681844e-02
    asset[12]  asset[12]  1.1696382577532312e-02
    asset[12]  asset[13]  4.1939647309257336e-04
    asset[13]  asset[12]  4.1939647309257336e-04
    asset[12]  asset[14]  1.1657404265165009e-03
    asset[14]  asset[12]  1.1657404265165009e-03
    asset[12]  asset[15]  4.4405286538574916e-03
    asset[15]  asset[12]  4.4405286538574916e-03
    asset[12]  asset[16]  -4.1788877103650993e-03
    asset[16]  asset[12]  -4.1788877103650993e-03
    asset[12]  asset[17]  -1.0469798381281807e-02
    asset[17]  asset[12]  -1.0469798381281807e-02
    asset[12]  asset[18]  4.5507287076755800e-03
    asset[18]  asset[12]  4.5507287076755800e-03
    asset[12]  asset[19]  -1.3518231031677843e-02
    asset[19]  asset[12]  -1.3518231031677843e-02
    asset[13]  asset[13]  1.7498739769961091e-02
    asset[13]  asset[14]  -1.3407547910765528e-02
    asset[14]  asset[13]  -1.3407547910765528e-02
    asset[13]  asset[15]  -6.4080425312244074e-03
    asset[15]  asset[13]  -6.4080425312244074e-03
    asset[13]  asset[16]  -2.6933752750843386e-03
    asset[16]  asset[13]  -2.6933752750843386e-03
    asset[13]  asset[17]  1.2320205191100213e-02
    asset[17]  asset[13]  1.2320205191100213e-02
    asset[13]  asset[18]  4.7347305716097399e-03
    asset[18]  asset[13]  4.7347305716097399e-03
    asset[13]  asset[19]  1.6408113253429425e-02
    asset[19]  asset[13]  1.6408113253429425e-02
    asset[14]  asset[14]  2.1978159551504013e-02
    asset[14]  asset[15]  -1.4287665299205877e-02
    asset[15]  asset[14]  -1.4287665299205877e-02
    asset[14]  asset[16]  -5.5401071685540412e-03
    asset[16]  asset[14]  -5.5401071685540412e-03
    asset[14]  asset[17]  -7.5219710187039955e-03
    asset[17]  asset[14]  -7.5219710187039955e-03
    asset[14]  asset[18]  3.8355651898340378e-03
    asset[18]  asset[14]  3.8355651898340378e-03
    asset[14]  asset[19]  -2.2722300304462095e-02
    asset[19]  asset[14]  -2.2722300304462095e-02
    asset[15]  asset[15]  8.6942954998031674e-02
    asset[15]  asset[16]  1.6819661265233293e-02
    asset[16]  asset[15]  1.6819661265233293e-02
    asset[15]  asset[17]  -8.5521656374958413e-03
    asset[17]  asset[15]  -8.5521656374958413e-03
    asset[15]  asset[18]  -2.8598948153776088e-02
    asset[18]  asset[15]  -2.8598948153776088e-02
    asset[15]  asset[19]  9.3103843458760948e-03
    asset[19]  asset[15]  9.3103843458760948e-03
    asset[16]  asset[16]  1.0115032211791119e-02
    asset[16]  asset[17]  3.8072810873228560e-03
    asset[17]  asset[16]  3.8072810873228560e-03
    asset[16]  asset[18]  -9.5382236155641554e-03
    asset[18]  asset[16]  -9.5382236155641554e-03
    asset[16]  asset[19]  8.6055538478119076e-03
    asset[19]  asset[16]  8.6055538478119076e-03
    asset[17]  asset[17]  6.2273005856810532e-02
    asset[17]  asset[18]  -2.5567716799355820e-03
    asset[18]  asset[17]  -2.5567716799355820e-03
    asset[17]  asset[19]  4.4601589542517681e-02
    asset[19]  asset[17]  4.4601589542517681e-02
    asset[18]  asset[18]  1.3455869164521335e-02
    asset[18]  asset[19]  -8.9880594893162850e-03
    asset[19]  asset[18]  -8.9880594893162850e-03
    asset[19]  asset[19]  5.2223441344476033e-02
QCMATRIX   fixed_risk
    asset[0]  asset[0]  1.3391053152761951e-03
    asset[1]  asset[1]  2.6359694016593262e-03
    asset[2]  asset[2]  1.8724536517038971e-03
    asset[3]  asset[3]  1.9109521940798874e-03
    asset[4]  asset[4]  2.5296799005973605e-03
    asset[5]  asset[5]  1.2090589796693409e-03
    asset[6]  asset[6]  1.3436220849384149e-03
    asset[7]  asset[7]  7.5692858491596075e-03
    asset[8]  asset[8]  4.4808781483151074e-03
    asset[9]  asset[9]  7.8673923196877424e-03
    asset[10]  asset[10]  6.5170377191526756e-03
    asset[11]  asset[11]  5.0872612819141787e-03
    asset[12]  asset[12]  1.2645598681155560e-03
    asset[13]  asset[13]  1.6315928382741641e-03
    asset[14]  asset[14]  2.2671027336985321e-03
    asset[15]  asset[15]  8.1644351777950853e-03
    asset[16]  asset[16]  1.1211002378255584e-03
    asset[17]  asset[17]  6.8510298148619156e-03
    asset[18]  asset[18]  1.3588143782691656e-03
    asset[19]  asset[19]  5.7593916243721607e-03
ENDATA
